n = 87; 
edge = 
[| 1, 20
| 1, 14
| 1, 4
| 1, 79
| 1, 66
| 1, 83
| 2, 32
| 2, 55
| 2, 74
| 2, 46
| 2, 7
| 2, 4
| 2, 34
| 2, 72
| 2, 29
| 2, 23
| 2, 43
| 2, 42
| 2, 81
| 2, 53
| 2, 19
| 2, 39
| 2, 86
| 2, 16
| 2, 56
| 2, 87
| 2, 33
| 2, 58
| 2, 76
| 2, 67
| 2, 35
| 2, 54
| 2, 83
| 2, 79
| 2, 11
| 2, 66
| 2, 80
| 3, 22
| 3, 23
| 3, 72
| 3, 58
| 3, 87
| 3, 83
| 3, 33
| 4, 12
| 4, 87
| 4, 19
| 4, 74
| 4, 32
| 4, 55
| 4, 46
| 4, 34
| 4, 2
| 4, 21
| 4, 18
| 4, 59
| 4, 1
| 4, 49
| 4, 14
| 4, 20
| 4, 83
| 4, 79
| 4, 66
| 5, 31
| 5, 34
| 5, 83
| 5, 78
| 6, 47
| 6, 83
| 7, 35
| 7, 2
| 7, 19
| 7, 87
| 7, 33
| 7, 34
| 7, 83
| 7, 58
| 8, 71
| 8, 49
| 8, 83
| 9, 11
| 9, 76
| 9, 14
| 9, 40
| 9, 83
| 9, 57
| 10, 42
| 10, 83
| 11, 9
| 11, 40
| 11, 14
| 11, 67
| 11, 83
| 11, 76
| 11, 2
| 12, 74
| 12, 32
| 12, 46
| 12, 34
| 12, 14
| 12, 21
| 12, 20
| 12, 4
| 12, 68
| 12, 36
| 12, 52
| 12, 83
| 13, 43
| 13, 27
| 13, 85
| 13, 60
| 13, 19
| 14, 12
| 14, 74
| 14, 32
| 14, 46
| 14, 34
| 14, 21
| 14, 49
| 14, 1
| 14, 9
| 14, 40
| 14, 11
| 14, 76
| 14, 4
| 14, 20
| 14, 83
| 14, 79
| 14, 66
| 15, 61
| 15, 49
| 15, 83
| 16, 67
| 16, 77
| 16, 63
| 16, 22
| 16, 42
| 16, 76
| 16, 66
| 16, 2
| 16, 83
| 17, 37
| 17, 84
| 17, 19
| 17, 87
| 17, 58
| 17, 45
| 17, 73
| 17, 50
| 17, 83
| 18, 4
| 18, 71
| 18, 59
| 18, 83
| 18, 49
| 19, 51
| 19, 23
| 19, 72
| 19, 4
| 19, 55
| 19, 7
| 19, 42
| 19, 81
| 19, 53
| 19, 43
| 19, 27
| 19, 85
| 19, 13
| 19, 60
| 19, 2
| 19, 32
| 19, 74
| 19, 35
| 19, 66
| 19, 71
| 19, 46
| 19, 34
| 19, 37
| 19, 84
| 19, 87
| 19, 58
| 19, 17
| 19, 45
| 19, 73
| 19, 50
| 19, 68
| 19, 69
| 19, 52
| 19, 49
| 19, 83
| 20, 12
| 20, 74
| 20, 32
| 20, 46
| 20, 34
| 20, 87
| 20, 59
| 20, 71
| 20, 21
| 20, 49
| 20, 1
| 20, 4
| 20, 14
| 20, 83
| 20, 79
| 20, 66
| 21, 12
| 21, 74
| 21, 32
| 21, 46
| 21, 34
| 21, 14
| 21, 4
| 21, 66
| 21, 83
| 21, 79
| 21, 20
| 22, 3
| 22, 77
| 22, 63
| 22, 16
| 22, 42
| 22, 83
| 23, 43
| 23, 19
| 23, 2
| 23, 35
| 23, 3
| 23, 87
| 23, 29
| 23, 67
| 23, 72
| 23, 83
| 23, 33
| 24, 67
| 24, 66
| 24, 80
| 24, 83
| 25, 83
| 26, 83
| 27, 43
| 27, 85
| 27, 13
| 27, 60
| 27, 19
| 28, 51
| 28, 69
| 28, 68
| 28, 83
| 29, 35
| 29, 2
| 29, 87
| 29, 33
| 29, 72
| 29, 23
| 29, 83
| 29, 67
| 30, 39
| 30, 83
| 31, 5
| 31, 34
| 31, 67
| 31, 44
| 31, 76
| 31, 83
| 32, 12
| 32, 14
| 32, 21
| 32, 20
| 32, 4
| 32, 66
| 32, 87
| 32, 2
| 32, 19
| 32, 70
| 32, 46
| 32, 74
| 32, 55
| 32, 34
| 32, 83
| 33, 7
| 33, 29
| 33, 67
| 33, 58
| 33, 3
| 33, 23
| 33, 72
| 33, 87
| 33, 2
| 33, 83
| 34, 12
| 34, 14
| 34, 21
| 34, 20
| 34, 4
| 34, 87
| 34, 35
| 34, 2
| 34, 71
| 34, 19
| 34, 7
| 34, 58
| 34, 5
| 34, 66
| 34, 70
| 34, 46
| 34, 74
| 34, 32
| 34, 55
| 34, 83
| 34, 31
| 35, 7
| 35, 87
| 35, 58
| 35, 34
| 35, 29
| 35, 23
| 35, 19
| 35, 86
| 35, 66
| 35, 72
| 35, 56
| 35, 76
| 35, 67
| 35, 2
| 35, 54
| 35, 83
| 36, 52
| 36, 12
| 36, 83
| 37, 84
| 37, 19
| 37, 87
| 37, 58
| 37, 17
| 37, 45
| 37, 73
| 37, 50
| 37, 83
| 38, 83
| 39, 30
| 39, 66
| 39, 2
| 39, 83
| 40, 11
| 40, 76
| 40, 14
| 40, 83
| 40, 9
| 40, 57
| 41, 83
| 42, 10
| 42, 43
| 42, 19
| 42, 66
| 42, 87
| 42, 2
| 42, 81
| 42, 53
| 42, 77
| 42, 63
| 42, 16
| 42, 22
| 42, 67
| 42, 83
| 43, 23
| 43, 72
| 43, 81
| 43, 53
| 43, 66
| 43, 2
| 43, 42
| 43, 87
| 43, 83
| 43, 27
| 43, 85
| 43, 13
| 43, 60
| 43, 19
| 44, 31
| 44, 76
| 44, 83
| 45, 37
| 45, 84
| 45, 19
| 45, 87
| 45, 58
| 45, 17
| 45, 73
| 45, 50
| 45, 83
| 46, 12
| 46, 14
| 46, 21
| 46, 20
| 46, 4
| 46, 66
| 46, 87
| 46, 2
| 46, 71
| 46, 19
| 46, 70
| 46, 74
| 46, 32
| 46, 55
| 46, 34
| 46, 83
| 47, 6
| 47, 83
| 48, 83
| 49, 61
| 49, 15
| 49, 8
| 49, 14
| 49, 20
| 49, 66
| 49, 71
| 49, 59
| 49, 18
| 49, 79
| 49, 4
| 49, 68
| 49, 69
| 49, 52
| 49, 19
| 49, 83
| 50, 37
| 50, 84
| 50, 19
| 50, 87
| 50, 58
| 50, 17
| 50, 45
| 50, 73
| 50, 83
| 51, 85
| 51, 60
| 51, 19
| 51, 28
| 51, 69
| 51, 68
| 51, 83
| 52, 68
| 52, 69
| 52, 19
| 52, 49
| 52, 36
| 52, 12
| 52, 83
| 53, 43
| 53, 66
| 53, 87
| 53, 2
| 53, 19
| 53, 83
| 53, 81
| 53, 42
| 54, 76
| 54, 67
| 54, 35
| 54, 2
| 54, 83
| 55, 4
| 55, 66
| 55, 87
| 55, 19
| 55, 2
| 55, 70
| 55, 46
| 55, 74
| 55, 32
| 55, 34
| 55, 83
| 56, 83
| 56, 35
| 56, 2
| 57, 40
| 57, 83
| 57, 9
| 58, 71
| 58, 69
| 58, 35
| 58, 72
| 58, 37
| 58, 84
| 58, 19
| 58, 17
| 58, 45
| 58, 73
| 58, 50
| 58, 34
| 58, 7
| 58, 87
| 58, 33
| 58, 3
| 58, 2
| 58, 83
| 59, 20
| 59, 4
| 59, 71
| 59, 83
| 59, 49
| 59, 18
| 60, 51
| 60, 43
| 60, 27
| 60, 85
| 60, 13
| 60, 19
| 61, 15
| 61, 49
| 61, 83
| 62, 83
| 63, 77
| 63, 16
| 63, 22
| 63, 42
| 63, 83
| 64, 83
| 65, 83
| 66, 74
| 66, 32
| 66, 55
| 66, 46
| 66, 43
| 66, 81
| 66, 53
| 66, 42
| 66, 87
| 66, 86
| 66, 35
| 66, 19
| 66, 39
| 66, 16
| 66, 21
| 66, 49
| 66, 34
| 66, 67
| 66, 24
| 66, 4
| 66, 14
| 66, 20
| 66, 1
| 66, 76
| 66, 83
| 66, 80
| 66, 79
| 66, 2
| 67, 16
| 67, 42
| 67, 87
| 67, 33
| 67, 29
| 67, 72
| 67, 23
| 67, 35
| 67, 54
| 67, 2
| 67, 31
| 67, 66
| 67, 11
| 67, 24
| 67, 76
| 67, 80
| 67, 83
| 68, 19
| 68, 49
| 68, 52
| 68, 28
| 68, 51
| 68, 69
| 68, 83
| 68, 12
| 69, 71
| 69, 58
| 69, 19
| 69, 49
| 69, 52
| 69, 28
| 69, 51
| 69, 68
| 69, 83
| 70, 46
| 70, 74
| 70, 32
| 70, 55
| 70, 34
| 70, 83
| 71, 8
| 71, 58
| 71, 69
| 71, 20
| 71, 46
| 71, 34
| 71, 19
| 71, 59
| 71, 49
| 71, 18
| 71, 83
| 72, 43
| 72, 19
| 72, 2
| 72, 58
| 72, 3
| 72, 35
| 72, 87
| 72, 29
| 72, 67
| 72, 23
| 72, 83
| 72, 33
| 73, 37
| 73, 84
| 73, 19
| 73, 58
| 73, 17
| 73, 45
| 73, 50
| 73, 87
| 73, 83
| 74, 12
| 74, 14
| 74, 21
| 74, 20
| 74, 4
| 74, 66
| 74, 87
| 74, 2
| 74, 19
| 74, 70
| 74, 46
| 74, 32
| 74, 55
| 74, 34
| 74, 83
| 75, 83
| 76, 16
| 76, 35
| 76, 54
| 76, 2
| 76, 9
| 76, 40
| 76, 14
| 76, 11
| 76, 67
| 76, 80
| 76, 44
| 76, 31
| 76, 66
| 76, 83
| 77, 63
| 77, 16
| 77, 22
| 77, 42
| 77, 83
| 78, 83
| 78, 5
| 79, 21
| 79, 1
| 79, 49
| 79, 4
| 79, 14
| 79, 20
| 79, 83
| 79, 2
| 79, 66
| 80, 24
| 80, 67
| 80, 76
| 80, 66
| 80, 83
| 80, 2
| 81, 43
| 81, 66
| 81, 87
| 81, 2
| 81, 19
| 81, 83
| 81, 53
| 81, 42
| 82, 83
| 83, 56
| 83, 10
| 83, 43
| 83, 81
| 83, 53
| 83, 30
| 83, 77
| 83, 63
| 83, 22
| 83, 42
| 83, 37
| 83, 84
| 83, 17
| 83, 45
| 83, 50
| 83, 73
| 83, 61
| 83, 15
| 83, 39
| 83, 86
| 83, 16
| 83, 21
| 83, 8
| 83, 71
| 83, 59
| 83, 18
| 83, 62
| 83, 38
| 83, 26
| 83, 65
| 83, 64
| 83, 7
| 83, 29
| 83, 3
| 83, 82
| 83, 23
| 83, 72
| 83, 87
| 83, 33
| 83, 58
| 83, 35
| 83, 2
| 83, 54
| 83, 75
| 83, 41
| 83, 5
| 83, 78
| 83, 70
| 83, 46
| 83, 74
| 83, 32
| 83, 55
| 83, 34
| 83, 47
| 83, 6
| 83, 11
| 83, 40
| 83, 9
| 83, 57
| 83, 25
| 83, 24
| 83, 49
| 83, 19
| 83, 28
| 83, 51
| 83, 69
| 83, 68
| 83, 36
| 83, 52
| 83, 12
| 83, 48
| 83, 67
| 83, 4
| 83, 14
| 83, 20
| 83, 79
| 83, 1
| 83, 44
| 83, 31
| 83, 76
| 83, 66
| 83, 80
| 84, 37
| 84, 19
| 84, 87
| 84, 58
| 84, 17
| 84, 45
| 84, 73
| 84, 50
| 84, 83
| 85, 51
| 85, 43
| 85, 27
| 85, 13
| 85, 60
| 85, 19
| 86, 35
| 86, 66
| 86, 2
| 86, 83
| 87, 20
| 87, 4
| 87, 74
| 87, 32
| 87, 55
| 87, 46
| 87, 34
| 87, 35
| 87, 43
| 87, 66
| 87, 42
| 87, 81
| 87, 53
| 87, 7
| 87, 37
| 87, 84
| 87, 19
| 87, 17
| 87, 45
| 87, 50
| 87, 73
| 87, 29
| 87, 72
| 87, 23
| 87, 67
| 87, 58
| 87, 3
| 87, 33
| 87, 2
| 87, 83
|];

